50
1 0 5
2 0 3
3 1 5
4 0 4
4 2 5
4 3 2
5 0 2
5 1 5
6 4 2
6 5 4
7 1 4
7 2 3
7 6 2
8 0 3
8 1 5
8 3 4
9 0 5
9 2 5
9 3 5
9 4 4
9 5 2
9 6 3
9 7 5
10 1 5
10 2 3
10 4 5
10 5 1
11 2 3
11 5 4
11 6 3
11 8 3
11 9 5
11 10 2
12 0 2
12 2 2
12 3 3
12 6 1
12 7 1
12 9 3
12 10 5
13 0 5
13 1 4
13 2 1
13 3 1
13 4 5
13 7 3
13 8 4
13 9 2
13 10 4
13 11 3
13 12 1
14 0 2
14 3 2
14 6 5
14 7 3
14 8 3
14 10 4
14 12 4
14 13 2
15 0 3
15 3 5
15 4 3
15 6 5
15 7 2
15 8 4
15 9 2
15 10 2
15 11 1
15 12 5
15 13 5
15 14 3
16 0 3
16 1 1
16 2 5
16 3 2
16 4 4
16 5 1
16 7 4
16 8 4
16 9 3
16 10 4
16 11 1
16 15 4
17 0 1
17 10 4
17 12 4
17 15 1
17 16 4
18 0 4
18 2 5
18 3 4
18 5 4
18 6 3
18 7 4
18 14 4
18 16 5
19 0 5
19 2 1
19 5 4
19 6 2
19 8 2
19 9 1
19 10 1
19 11 4
19 13 5
19 14 4
19 17 4
19 18 3
20 0 1
20 2 5
20 5 1
20 7 3
20 11 1
20 12 1
20 14 1
20 15 4
20 17 2
20 18 5
21 0 5
21 3 3
21 5 3
21 7 2
21 9 2
21 10 4
21 11 2
21 12 3
21 13 4
21 16 1
21 18 1
21 19 1
21 20 1
22 0 5
22 4 2
22 7 4
22 9 1
22 13 5
22 14 5
22 15 2
22 16 2
22 17 4
22 18 2
22 19 5
22 20 4
22 21 1
23 0 4
23 1 5
23 4 1
23 11 2
23 12 3
23 13 2
23 15 2
23 19 2
24 1 4
24 3 5
24 5 3
24 7 4
24 9 5
24 11 2
24 12 5
24 13 3
24 14 1
24 15 5
24 17 5
24 19 5
24 20 3
24 23 4
25 0 4
25 1 2
25 2 1
25 6 2
25 10 3
25 15 1
25 21 1
26 3 4
26 5 1
26 8 5
26 13 4
26 16 1
26 17 1
26 22 4
26 24 5
26 25 3
27 1 3
27 2 2
27 3 5
27 4 4
27 6 1
27 8 1
27 10 5
27 11 2
27 12 1
27 14 2
27 15 3
27 17 4
27 20 5
27 21 5
27 23 5
28 1 1
28 2 1
28 3 3
28 5 4
28 7 3
28 10 5
28 13 5
28 16 4
28 17 1
28 18 2
28 21 4
28 22 4
28 23 5
28 24 4
28 27 4
29 0 3
29 2 4
29 5 3
29 6 3
29 9 2
29 10 3
29 13 3
29 16 3
29 19 3
29 20 3
29 21 4
29 24 5
29 26 1
29 27 3
29 28 5
30 0 4
30 1 4
30 2 2
30 3 4
30 4 2
30 7 4
30 8 4
30 9 3
30 10 4
30 12 5
30 14 3
30 16 4
30 18 5
30 20 5
30 21 4
30 22 2
30 23 4
30 26 5
30 27 5
30 28 1
31 1 3
31 2 5
31 5 5
31 6 5
31 7 4
31 10 4
31 11 3
31 13 1
31 18 4
31 19 2
31 20 5
31 21 2
31 24 1
31 25 1
31 30 5
32 3 4
32 5 4
32 6 1
32 9 5
32 11 1
32 13 5
32 14 3
32 15 1
32 18 2
32 22 2
32 24 1
32 27 3
32 29 2
32 30 2
33 0 5
33 4 5
33 9 3
33 10 4
33 11 2
33 13 5
33 15 4
33 18 2
33 22 4
33 25 5
33 28 2
33 31 2
34 0 5
34 5 5
34 7 1
34 9 3
34 10 5
34 11 5
34 13 5
34 15 1
34 16 1
34 18 3
34 20 3
34 23 5
34 26 5
34 27 3
34 29 1
34 32 1
35 0 1
35 1 5
35 2 5
35 3 2
35 8 5
35 9 5
35 10 3
35 14 1
35 16 4
35 17 2
35 18 2
35 21 5
35 22 4
35 23 2
35 26 3
35 27 3
35 31 3
35 33 5
36 1 1
36 2 4
36 4 2
36 6 5
36 7 1
36 11 1
36 18 2
36 19 1
36 23 5
36 24 3
36 25 3
36 26 5
36 28 2
36 29 2
36 32 4
36 34 5
36 35 4
37 4 1
37 5 4
37 6 1
37 11 3
37 12 3
37 13 5
37 14 5
37 16 3
37 19 2
37 21 3
37 24 4
37 25 3
37 26 5
37 27 5
37 29 4
37 30 5
37 32 5
37 36 2
38 3 4
38 4 5
38 5 4
38 7 4
38 8 1
38 10 3
38 11 1
38 12 3
38 13 2
38 15 5
38 17 2
38 18 5
38 20 5
38 23 4
38 27 3
38 31 1
38 32 3
38 33 4
38 36 1
38 37 1
39 1 3
39 2 2
39 3 2
39 4 2
39 6 5
39 7 2
39 8 4
39 10 1
39 11 3
39 12 5
39 14 1
39 15 5
39 16 5
39 17 3
39 18 1
39 19 3
39 20 3
39 21 2
39 25 2
39 28 5
39 30 4
39 34 4
39 35 5
39 37 2
39 38 3
40 3 3
40 4 4
40 6 5
40 8 5
40 9 2
40 11 2
40 12 1
40 13 1
40 18 4
40 20 5
40 21 2
40 26 3
40 30 1
40 32 4
40 34 1
40 35 2
40 36 2
40 38 2
40 39 5
41 0 5
41 1 4
41 2 3
41 4 2
41 10 3
41 12 4
41 15 5
41 17 2
41 18 1
41 19 4
41 20 2
41 23 3
41 24 2
41 27 5
41 28 2
41 29 2
41 31 2
41 33 4
41 35 4
41 36 1
41 37 1
41 38 4
41 39 4
42 4 2
42 6 5
42 8 4
42 11 2
42 13 4
42 14 2
42 15 1
42 19 3
42 23 2
42 25 4
42 29 3
42 31 1
42 32 3
42 34 5
42 35 1
42 37 3
42 38 3
43 3 1
43 4 4
43 6 3
43 11 2
43 17 3
43 19 4
43 25 5
43 26 3
43 31 1
43 32 1
43 34 5
43 37 2
43 38 1
43 39 5
43 40 1
44 3 1
44 4 3
44 5 3
44 6 2
44 7 5
44 8 3
44 9 3
44 10 1
44 12 5
44 13 3
44 19 5
44 21 1
44 24 4
44 27 3
44 35 5
44 36 2
44 39 2
44 40 2
44 41 5
45 0 5
45 1 2
45 5 2
45 6 3
45 9 3
45 11 3
45 12 4
45 13 4
45 15 4
45 16 2
45 17 2
45 19 2
45 20 5
45 23 1
45 24 5
45 25 2
45 27 4
45 28 1
45 31 2
45 33 1
45 35 4
45 37 2
45 38 5
45 39 3
45 40 2
45 43 1
45 44 4
46 0 5
46 1 4
46 2 2
46 3 1
46 4 2
46 9 5
46 10 5
46 11 3
46 15 2
46 16 2
46 17 5
46 18 1
46 20 5
46 21 3
46 22 1
46 23 4
46 24 2
46 25 5
46 26 3
46 27 5
46 30 4
46 32 4
46 34 3
46 36 3
46 40 2
46 42 5
46 45 3
47 0 2
47 1 3
47 2 3
47 6 2
47 9 1
47 11 1
47 12 1
47 13 3
47 14 3
47 15 1
47 17 2
47 18 3
47 19 1
47 20 3
47 21 5
47 23 3
47 24 2
47 25 3
47 28 4
47 31 1
47 33 2
47 34 5
47 36 3
47 37 4
47 39 5
47 42 3
47 43 2
47 46 5
48 0 4
48 4 2
48 5 5
48 6 3
48 8 5
48 10 2
48 11 4
48 12 2
48 14 2
48 16 3
48 17 4
48 18 2
48 21 5
48 25 1
48 27 3
48 28 3
48 31 3
48 32 1
48 33 1
48 34 2
48 36 2
48 38 4
48 39 5
48 40 2
48 42 2
49 0 2
49 2 3
49 3 2
49 4 2
49 7 5
49 8 1
49 10 2
49 12 3
49 13 4
49 14 1
49 19 4
49 20 5
49 21 3
49 24 4
49 25 4
49 26 4
49 27 4
49 28 1
49 29 1
49 33 4
49 35 5
49 36 2
49 37 3
49 38 5
49 39 3
49 41 5
49 42 1
49 48 2
